
Gurobi 5.6.3 (linux64) logging started Sun May 31 02:10:54 2015


Gurobi 5.6.3 (linux64) logging started Sun May 31 02:12:29 2015


Gurobi 5.6.3 (linux64) logging started Sun May 31 02:14:06 2015


Gurobi 5.6.3 (linux64) logging started Sun May 31 02:15:00 2015


Gurobi 5.6.3 (linux64) logging started Sun May 31 02:17:16 2015


Gurobi 5.6.3 (linux64) logging started Sun May 31 02:48:03 2015


Gurobi 5.6.3 (linux64) logging started Sun May 31 08:12:44 2015


Gurobi 5.6.3 (linux64) logging started Sun May 31 08:14:33 2015


Gurobi 5.6.3 (linux64) logging started Sun May 31 08:16:25 2015


Gurobi 5.6.3 (linux64) logging started Sun May 31 08:18:19 2015


Gurobi 5.6.3 (linux64) logging started Mon Jun  8 17:28:59 2015


Gurobi 5.6.3 (linux64) logging started Mon Jun  8 18:17:30 2015


Gurobi 5.6.3 (linux64) logging started Mon Jun  8 18:22:30 2015


Gurobi 5.6.3 (linux64) logging started Mon Jun  8 21:23:30 2015


Gurobi 5.6.3 (linux64) logging started Tue Jun  9 13:20:22 2015


Gurobi 5.6.3 (linux64) logging started Tue Jun  9 13:29:53 2015


Gurobi 5.6.3 (linux64) logging started Tue Jun  9 13:30:37 2015


Gurobi 5.6.3 (linux64) logging started Tue Jun  9 13:31:23 2015


Gurobi 5.6.3 (linux64) logging started Tue Jun  9 13:32:24 2015


Gurobi 5.6.3 (linux64) logging started Tue Jun  9 13:41:39 2015


Gurobi 5.6.3 (linux64) logging started Tue Jun  9 13:43:16 2015


Gurobi 5.6.3 (linux64) logging started Tue Jun  9 13:44:04 2015


Gurobi 5.6.3 (linux64) logging started Tue Jun  9 14:06:50 2015


Gurobi 5.6.3 (linux64) logging started Tue Jun  9 14:16:52 2015


Gurobi 5.6.3 (linux64) logging started Tue Jun  9 14:26:48 2015


Gurobi 5.6.3 (linux64) logging started Tue Jun  9 14:27:52 2015


Gurobi 5.6.3 (linux64) logging started Tue Jun  9 14:28:25 2015


Gurobi 5.6.3 (linux64) logging started Tue Jun  9 14:29:46 2015


Gurobi 5.6.3 (linux64) logging started Tue Jun  9 14:30:33 2015


Gurobi 5.6.3 (linux64) logging started Tue Jun  9 14:31:26 2015


Gurobi 5.6.3 (linux64) logging started Tue Jun  9 14:34:57 2015


Gurobi 5.6.3 (linux64) logging started Tue Jun  9 14:36:18 2015


Gurobi 5.6.3 (linux64) logging started Tue Jun  9 14:37:25 2015


Gurobi 5.6.3 (linux64) logging started Tue Jun  9 14:43:08 2015


Gurobi 5.6.3 (linux64) logging started Tue Jun  9 14:44:05 2015


Gurobi 5.6.3 (linux64) logging started Tue Jun  9 14:56:08 2015


Gurobi 5.6.3 (linux64) logging started Tue Jun  9 15:01:17 2015


Gurobi 5.6.3 (linux64) logging started Tue Jun  9 15:26:33 2015


Gurobi 5.6.3 (linux64) logging started Tue Jun  9 15:27:05 2015


Gurobi 5.6.3 (linux64) logging started Tue Jun  9 15:32:36 2015


Gurobi 5.6.3 (linux64) logging started Tue Jun  9 15:35:16 2015


Gurobi 5.6.3 (linux64) logging started Tue Jun  9 15:54:50 2015


Gurobi 5.6.3 (linux64) logging started Tue Jun  9 15:57:21 2015


Gurobi 5.6.3 (linux64) logging started Tue Jun  9 16:04:40 2015


Gurobi 5.6.3 (linux64) logging started Tue Jun  9 16:32:04 2015


Gurobi 5.6.3 (linux64) logging started Tue Jun  9 16:37:11 2015


Gurobi 5.6.3 (linux64) logging started Tue Jun  9 16:57:24 2015


Gurobi 5.6.3 (linux64) logging started Tue Jun  9 17:01:29 2015


Gurobi 5.6.3 (linux64) logging started Tue Jun  9 17:37:39 2015


Gurobi 5.6.3 (linux64) logging started Tue Jun  9 17:47:00 2015


Gurobi 5.6.3 (linux64) logging started Tue Jun  9 17:51:40 2015


Gurobi 5.6.3 (linux64) logging started Tue Jun  9 17:52:41 2015


Gurobi 5.6.3 (linux64) logging started Tue Jun  9 22:18:22 2015


Gurobi 5.6.3 (linux64) logging started Tue Jun  9 22:19:51 2015


Gurobi 5.6.3 (linux64) logging started Tue Jun  9 22:22:30 2015


Gurobi 5.6.3 (linux64) logging started Tue Jun  9 22:27:12 2015


Gurobi 5.6.3 (linux64) logging started Tue Jun  9 22:28:54 2015


Gurobi 5.6.3 (linux64) logging started Tue Jun  9 22:31:39 2015


Gurobi 5.6.3 (linux64) logging started Tue Jun  9 22:44:09 2015


Gurobi 5.6.3 (linux64) logging started Tue Jun  9 22:47:04 2015


Gurobi 5.6.3 (linux64) logging started Tue Jun  9 22:48:36 2015


Gurobi 5.6.3 (linux64) logging started Thu Jun 11 09:46:42 2015


Gurobi 5.6.3 (linux64) logging started Thu Jun 11 09:55:46 2015


Gurobi 5.6.3 (linux64) logging started Thu Jun 11 09:59:05 2015


Gurobi 5.6.3 (linux64) logging started Thu Jun 11 10:03:12 2015


Gurobi 5.6.3 (linux64) logging started Thu Jun 11 10:03:44 2015


Gurobi 5.6.3 (linux64) logging started Thu Jun 11 10:05:32 2015


Gurobi 5.6.3 (linux64) logging started Thu Jun 11 10:11:23 2015


Gurobi 5.6.3 (linux64) logging started Thu Jun 11 10:14:48 2015


Gurobi 5.6.3 (linux64) logging started Thu Jun 11 11:15:30 2015


Gurobi 5.6.3 (linux64) logging started Thu Jun 11 11:20:00 2015


Gurobi 5.6.3 (linux64) logging started Thu Jun 11 12:17:51 2015


Gurobi 5.6.3 (linux64) logging started Thu Jun 11 12:23:10 2015


Gurobi 5.6.3 (linux64) logging started Thu Jun 11 12:25:02 2015


Gurobi 5.6.3 (linux64) logging started Thu Jun 11 12:28:36 2015


Gurobi 5.6.3 (linux64) logging started Thu Jun 11 12:30:14 2015


Gurobi 5.6.3 (linux64) logging started Thu Jun 11 12:31:36 2015


Gurobi 5.6.3 (linux64) logging started Thu Jun 11 12:34:01 2015


Gurobi 5.6.3 (linux64) logging started Thu Jun 11 12:36:09 2015


Gurobi 5.6.3 (linux64) logging started Thu Jun 11 12:40:52 2015


Gurobi 5.6.3 (linux64) logging started Thu Jun 11 13:01:33 2015


Gurobi 5.6.3 (linux64) logging started Thu Jun 11 13:01:48 2015


Gurobi 5.6.3 (linux64) logging started Thu Jun 11 13:02:28 2015


Gurobi 5.6.3 (linux64) logging started Thu Jun 11 13:03:46 2015


Gurobi 5.6.3 (linux64) logging started Thu Jun 11 13:03:58 2015


Gurobi 5.6.3 (linux64) logging started Thu Jun 11 13:04:11 2015


Gurobi 5.6.3 (linux64) logging started Thu Jun 11 13:08:35 2015


Gurobi 5.6.3 (linux64) logging started Thu Jun 11 13:15:47 2015


Gurobi 5.6.3 (linux64) logging started Thu Jun 11 13:24:23 2015


Gurobi 5.6.3 (linux64) logging started Thu Jun 11 13:24:45 2015


Gurobi 5.6.3 (linux64) logging started Thu Jun 11 13:25:20 2015


Gurobi 5.6.3 (linux64) logging started Thu Jun 11 13:25:50 2015


Gurobi 5.6.3 (linux64) logging started Thu Jun 11 13:26:17 2015


Gurobi 5.6.3 (linux64) logging started Thu Jun 11 13:28:47 2015


Gurobi 5.6.3 (linux64) logging started Thu Jun 11 13:35:07 2015


Gurobi 5.6.3 (linux64) logging started Thu Jun 11 14:04:07 2015


Gurobi 5.6.3 (linux64) logging started Thu Jun 11 14:04:42 2015


Gurobi 5.6.3 (linux64) logging started Thu Jun 11 14:24:03 2015


Gurobi 5.6.3 (linux64) logging started Thu Jun 11 14:25:56 2015


Gurobi 5.6.3 (linux64) logging started Thu Jun 11 18:08:48 2015


Gurobi 5.6.3 (linux64) logging started Thu Jun 11 22:20:29 2015


Gurobi 5.6.3 (linux64) logging started Thu Jun 11 22:26:26 2015


Gurobi 5.6.3 (linux64) logging started Thu Jun 11 22:40:35 2015


Gurobi 5.6.3 (linux64) logging started Thu Jun 11 22:51:37 2015


Gurobi 5.6.3 (linux64) logging started Thu Jun 11 22:52:56 2015


Gurobi 5.6.3 (linux64) logging started Thu Jun 11 22:53:22 2015


Gurobi 5.6.3 (linux64) logging started Fri Jun 12 00:01:17 2015


Gurobi 5.6.3 (linux64) logging started Fri Jun 12 00:02:02 2015


Gurobi 5.6.3 (linux64) logging started Fri Jun 12 00:20:39 2015


Gurobi 5.6.3 (linux64) logging started Fri Jun 12 00:26:46 2015


Gurobi 5.6.3 (linux64) logging started Fri Jun 12 00:31:28 2015


Gurobi 5.6.3 (linux64) logging started Fri Jun 12 00:39:40 2015


Gurobi 5.6.3 (linux64) logging started Fri Jun 12 00:45:45 2015


Gurobi 5.6.3 (linux64) logging started Fri Jun 12 00:50:31 2015


Gurobi 5.6.3 (linux64) logging started Fri Jun 12 00:54:34 2015


Gurobi 5.6.3 (linux64) logging started Fri Jun 12 01:20:13 2015


Gurobi 5.6.3 (linux64) logging started Fri Jun 12 01:23:21 2015


Gurobi 5.6.3 (linux64) logging started Fri Jun 12 01:26:01 2015


Gurobi 5.6.3 (linux64) logging started Fri Jun 12 01:29:10 2015


Gurobi 5.6.3 (linux64) logging started Fri Jun 12 01:39:30 2015


Gurobi 5.6.3 (linux64) logging started Fri Jun 12 01:40:28 2015


Gurobi 5.6.3 (linux64) logging started Fri Jun 12 01:45:44 2015


Gurobi 5.6.3 (linux64) logging started Fri Jun 12 13:07:48 2015


Gurobi 5.6.3 (linux64) logging started Fri Jun 12 13:10:22 2015


Gurobi 5.6.3 (linux64) logging started Fri Jun 12 13:16:34 2015


Gurobi 5.6.3 (linux64) logging started Fri Jun 12 13:58:04 2015


Gurobi 5.6.3 (linux64) logging started Fri Jun 12 14:57:42 2015


Gurobi 5.6.3 (linux64) logging started Fri Jun 12 14:58:49 2015


Gurobi 5.6.3 (linux64) logging started Fri Jun 12 15:02:40 2015


Gurobi 5.6.3 (linux64) logging started Fri Jun 12 15:58:41 2015


Gurobi 5.6.3 (linux64) logging started Fri Jun 12 16:06:33 2015


Gurobi 5.6.3 (linux64) logging started Fri Jun 12 16:08:04 2015


Gurobi 5.6.3 (linux64) logging started Fri Jun 12 16:10:05 2015


Gurobi 5.6.3 (linux64) logging started Fri Jun 12 16:14:08 2015


Gurobi 5.6.3 (linux64) logging started Fri Jun 12 16:15:51 2015


Gurobi 5.6.3 (linux64) logging started Fri Jun 12 16:17:50 2015


Gurobi 5.6.3 (linux64) logging started Fri Jun 12 16:19:15 2015


Gurobi 5.6.3 (linux64) logging started Fri Jun 12 16:23:29 2015


Gurobi 5.6.3 (linux64) logging started Fri Jun 12 16:24:32 2015


Gurobi 5.6.3 (linux64) logging started Fri Jun 12 16:25:21 2015


Gurobi 5.6.3 (linux64) logging started Fri Jun 12 16:27:56 2015


Gurobi 5.6.3 (linux64) logging started Fri Jun 12 16:31:52 2015


Gurobi 5.6.3 (linux64) logging started Fri Jun 12 16:32:38 2015


Gurobi 5.6.3 (linux64) logging started Fri Jun 12 16:34:08 2015


Gurobi 5.6.3 (linux64) logging started Fri Jun 12 16:36:39 2015


Gurobi 5.6.3 (linux64) logging started Fri Jun 12 16:37:39 2015


Gurobi 5.6.3 (linux64) logging started Fri Jun 12 16:38:51 2015


Gurobi 5.6.3 (linux64) logging started Fri Jun 12 20:22:04 2015


Gurobi 5.6.3 (linux64) logging started Fri Jun 12 20:25:01 2015


Gurobi 5.6.3 (linux64) logging started Fri Jun 12 20:38:28 2015


Gurobi 5.6.3 (linux64) logging started Fri Jun 12 20:40:25 2015


Gurobi 5.6.3 (linux64) logging started Fri Jun 12 20:42:25 2015


Gurobi 5.6.3 (linux64) logging started Fri Jun 12 20:44:49 2015


Gurobi 5.6.3 (linux64) logging started Fri Jun 12 21:05:07 2015


Gurobi 5.6.3 (linux64) logging started Fri Jun 12 21:11:19 2015


Gurobi 5.6.3 (linux64) logging started Fri Jun 12 21:17:22 2015


Gurobi 5.6.3 (linux64) logging started Fri Jun 12 21:52:26 2015


Gurobi 5.6.3 (linux64) logging started Fri Jun 12 22:02:37 2015


Gurobi 5.6.3 (linux64) logging started Fri Jun 12 22:11:25 2015


Gurobi 5.6.3 (linux64) logging started Fri Jun 12 22:12:17 2015


Gurobi 5.6.3 (linux64) logging started Fri Jun 12 22:15:01 2015


Gurobi 5.6.3 (linux64) logging started Fri Jun 12 22:32:00 2015


Gurobi 5.6.3 (linux64) logging started Fri Jun 12 22:49:55 2015


Gurobi 5.6.3 (linux64) logging started Fri Jun 12 22:50:07 2015


Gurobi 5.6.3 (linux64) logging started Fri Jun 12 22:57:40 2015


Gurobi 5.6.3 (linux64) logging started Fri Jun 12 23:03:33 2015


Gurobi 5.6.3 (linux64) logging started Fri Jun 12 23:26:23 2015


Gurobi 5.6.3 (linux64) logging started Fri Jun 12 23:32:58 2015


Gurobi 5.6.3 (linux64) logging started Fri Jun 12 23:33:07 2015


Gurobi 5.6.3 (linux64) logging started Fri Jun 12 23:37:13 2015


Gurobi 5.6.3 (linux64) logging started Fri Jun 12 23:37:23 2015


Gurobi 5.6.3 (linux64) logging started Fri Jun 12 23:37:35 2015


Gurobi 5.6.3 (linux64) logging started Fri Jun 12 23:42:25 2015


Gurobi 5.6.3 (linux64) logging started Fri Jun 12 23:42:37 2015


Gurobi 5.6.3 (linux64) logging started Sat Jun 13 00:05:08 2015


Gurobi 5.6.3 (linux64) logging started Sat Jun 13 00:06:22 2015


Gurobi 5.6.3 (linux64) logging started Sat Jun 13 00:06:46 2015


Gurobi 5.6.3 (linux64) logging started Sat Jun 13 00:07:04 2015


Gurobi 5.6.3 (linux64) logging started Sat Jun 13 00:07:07 2015


Gurobi 5.6.3 (linux64) logging started Sat Jun 13 00:07:27 2015


Gurobi 5.6.3 (linux64) logging started Sat Jun 13 00:09:25 2015


Gurobi 5.6.3 (linux64) logging started Sat Jun 13 00:13:15 2015


Gurobi 5.6.3 (linux64) logging started Sat Jun 13 00:13:28 2015


Gurobi 5.6.3 (linux64) logging started Sat Jun 13 00:18:32 2015


Gurobi 5.6.3 (linux64) logging started Sat Jun 13 02:13:35 2015


Gurobi 5.6.3 (linux64) logging started Mon Jun 15 14:31:17 2015


Gurobi 5.6.3 (linux64) logging started Mon Jun 15 14:39:14 2015

